param grid_size := 30;
param T := 50;
param no_obstacles := 3;
param initial_velocity_index := 0;

param initial :=
	0	10
	1	10;
	
param landing :=
	0	3
	1	3;
	
param obstacles :
	0   1  :=
0   3   0
1   3   1
2   2   0 ;
